c
c Generated WCNF file
c
p wcnf 436 2089 66002
66002 30 0
66002 -31 1 0
66002 -31 2 0
66002 31 -1 -2 0
66002 -32 1 0
66002 -32 3 0
66002 32 -1 -3 0
66002 -33 1 0
66002 -33 4 0
66002 33 -1 -4 0
66002 -34 1 0
66002 -34 5 0
66002 34 -1 -5 0
66002 -35 1 0
66002 -35 6 0
66002 35 -1 -6 0
66002 -36 1 0
66002 -36 7 0
66002 36 -1 -7 0
66002 -37 1 0
66002 -37 8 0
66002 37 -1 -8 0
66002 -38 1 0
66002 -38 9 0
66002 38 -1 -9 0
66002 -39 1 0
66002 -39 10 0
66002 39 -1 -10 0
66002 -40 1 0
66002 -40 11 0
66002 40 -1 -11 0
66002 -41 1 0
66002 -41 12 0
66002 41 -1 -12 0
66002 -42 1 0
66002 -42 13 0
66002 42 -1 -13 0
66002 -43 1 0
66002 -43 14 0
66002 43 -1 -14 0
66002 -44 1 0
66002 -44 15 0
66002 44 -1 -15 0
66002 -45 1 0
66002 -45 16 0
66002 45 -1 -16 0
66002 -46 1 0
66002 -46 17 0
66002 46 -1 -17 0
66002 -47 1 0
66002 -47 18 0
66002 47 -1 -18 0
66002 -48 1 0
66002 -48 19 0
66002 48 -1 -19 0
66002 -49 1 0
66002 -49 20 0
66002 49 -1 -20 0
66002 -50 1 0
66002 -50 21 0
66002 50 -1 -21 0
66002 -51 1 0
66002 -51 22 0
66002 51 -1 -22 0
66002 -52 1 0
66002 -52 23 0
66002 52 -1 -23 0
66002 -53 1 0
66002 -53 24 0
66002 53 -1 -24 0
66002 -54 1 0
66002 -54 25 0
66002 54 -1 -25 0
66002 -55 1 0
66002 -55 26 0
66002 55 -1 -26 0
66002 -56 1 0
66002 -56 27 0
66002 56 -1 -27 0
66002 -57 1 0
66002 -57 28 0
66002 57 -1 -28 0
66002 -58 1 0
66002 -58 29 0
66002 58 -1 -29 0
66002 -59 2 0
66002 -59 3 0
66002 59 -2 -3 0
66002 -60 2 0
66002 -60 4 0
66002 60 -2 -4 0
66002 -61 2 0
66002 -61 5 0
66002 61 -2 -5 0
66002 -62 2 0
66002 -62 6 0
66002 62 -2 -6 0
66002 -63 2 0
66002 -63 7 0
66002 63 -2 -7 0
66002 -64 2 0
66002 -64 8 0
66002 64 -2 -8 0
66002 -65 2 0
66002 -65 9 0
66002 65 -2 -9 0
66002 -66 2 0
66002 -66 10 0
66002 66 -2 -10 0
66002 -67 2 0
66002 -67 11 0
66002 67 -2 -11 0
66002 -68 2 0
66002 -68 12 0
66002 68 -2 -12 0
66002 -69 2 0
66002 -69 13 0
66002 69 -2 -13 0
66002 -70 2 0
66002 -70 14 0
66002 70 -2 -14 0
66002 -71 2 0
66002 -71 15 0
66002 71 -2 -15 0
66002 -72 2 0
66002 -72 16 0
66002 72 -2 -16 0
66002 -73 2 0
66002 -73 17 0
66002 73 -2 -17 0
66002 -74 2 0
66002 -74 18 0
66002 74 -2 -18 0
66002 -75 2 0
66002 -75 19 0
66002 75 -2 -19 0
66002 -76 2 0
66002 -76 20 0
66002 76 -2 -20 0
66002 -77 2 0
66002 -77 21 0
66002 77 -2 -21 0
66002 -78 2 0
66002 -78 22 0
66002 78 -2 -22 0
66002 -79 2 0
66002 -79 23 0
66002 79 -2 -23 0
66002 -80 2 0
66002 -80 24 0
66002 80 -2 -24 0
66002 -81 2 0
66002 -81 25 0
66002 81 -2 -25 0
66002 -82 2 0
66002 -82 26 0
66002 82 -2 -26 0
66002 -83 2 0
66002 -83 27 0
66002 83 -2 -27 0
66002 -84 2 0
66002 -84 28 0
66002 84 -2 -28 0
66002 -85 2 0
66002 -85 29 0
66002 85 -2 -29 0
66002 -86 3 0
66002 -86 4 0
66002 86 -3 -4 0
66002 -87 3 0
66002 -87 5 0
66002 87 -3 -5 0
66002 -88 3 0
66002 -88 6 0
66002 88 -3 -6 0
66002 -89 3 0
66002 -89 7 0
66002 89 -3 -7 0
66002 -90 3 0
66002 -90 8 0
66002 90 -3 -8 0
66002 -91 3 0
66002 -91 9 0
66002 91 -3 -9 0
66002 -92 3 0
66002 -92 10 0
66002 92 -3 -10 0
66002 -93 3 0
66002 -93 11 0
66002 93 -3 -11 0
66002 -94 3 0
66002 -94 12 0
66002 94 -3 -12 0
66002 -95 3 0
66002 -95 13 0
66002 95 -3 -13 0
66002 -96 3 0
66002 -96 14 0
66002 96 -3 -14 0
66002 -97 3 0
66002 -97 15 0
66002 97 -3 -15 0
66002 -98 3 0
66002 -98 16 0
66002 98 -3 -16 0
66002 -99 3 0
66002 -99 17 0
66002 99 -3 -17 0
66002 -100 3 0
66002 -100 18 0
66002 100 -3 -18 0
66002 -101 3 0
66002 -101 19 0
66002 101 -3 -19 0
66002 -102 3 0
66002 -102 20 0
66002 102 -3 -20 0
66002 -103 3 0
66002 -103 21 0
66002 103 -3 -21 0
66002 -104 3 0
66002 -104 22 0
66002 104 -3 -22 0
66002 -105 3 0
66002 -105 23 0
66002 105 -3 -23 0
66002 -106 3 0
66002 -106 24 0
66002 106 -3 -24 0
66002 -107 3 0
66002 -107 25 0
66002 107 -3 -25 0
66002 -108 3 0
66002 -108 26 0
66002 108 -3 -26 0
66002 -109 3 0
66002 -109 27 0
66002 109 -3 -27 0
66002 -110 3 0
66002 -110 28 0
66002 110 -3 -28 0
66002 -111 3 0
66002 -111 29 0
66002 111 -3 -29 0
66002 -112 4 0
66002 -112 5 0
66002 112 -4 -5 0
66002 -113 4 0
66002 -113 6 0
66002 113 -4 -6 0
66002 -114 4 0
66002 -114 7 0
66002 114 -4 -7 0
66002 -115 4 0
66002 -115 8 0
66002 115 -4 -8 0
66002 -116 4 0
66002 -116 9 0
66002 116 -4 -9 0
66002 -117 4 0
66002 -117 10 0
66002 117 -4 -10 0
66002 -118 4 0
66002 -118 11 0
66002 118 -4 -11 0
66002 -119 4 0
66002 -119 12 0
66002 119 -4 -12 0
66002 -120 4 0
66002 -120 13 0
66002 120 -4 -13 0
66002 -121 4 0
66002 -121 14 0
66002 121 -4 -14 0
66002 -122 4 0
66002 -122 15 0
66002 122 -4 -15 0
66002 -123 4 0
66002 -123 16 0
66002 123 -4 -16 0
66002 -124 4 0
66002 -124 17 0
66002 124 -4 -17 0
66002 -125 4 0
66002 -125 18 0
66002 125 -4 -18 0
66002 -126 4 0
66002 -126 19 0
66002 126 -4 -19 0
66002 -127 4 0
66002 -127 20 0
66002 127 -4 -20 0
66002 -128 4 0
66002 -128 21 0
66002 128 -4 -21 0
66002 -129 4 0
66002 -129 22 0
66002 129 -4 -22 0
66002 -130 4 0
66002 -130 23 0
66002 130 -4 -23 0
66002 -131 4 0
66002 -131 24 0
66002 131 -4 -24 0
66002 -132 4 0
66002 -132 25 0
66002 132 -4 -25 0
66002 -133 4 0
66002 -133 26 0
66002 133 -4 -26 0
66002 -134 4 0
66002 -134 27 0
66002 134 -4 -27 0
66002 -135 4 0
66002 -135 28 0
66002 135 -4 -28 0
66002 -136 4 0
66002 -136 29 0
66002 136 -4 -29 0
66002 -137 5 0
66002 -137 6 0
66002 137 -5 -6 0
66002 -138 5 0
66002 -138 7 0
66002 138 -5 -7 0
66002 -139 5 0
66002 -139 8 0
66002 139 -5 -8 0
66002 -140 5 0
66002 -140 9 0
66002 140 -5 -9 0
66002 -141 5 0
66002 -141 10 0
66002 141 -5 -10 0
66002 -142 5 0
66002 -142 11 0
66002 142 -5 -11 0
66002 -143 5 0
66002 -143 12 0
66002 143 -5 -12 0
66002 -144 5 0
66002 -144 13 0
66002 144 -5 -13 0
66002 -145 5 0
66002 -145 14 0
66002 145 -5 -14 0
66002 -146 5 0
66002 -146 15 0
66002 146 -5 -15 0
66002 -147 5 0
66002 -147 16 0
66002 147 -5 -16 0
66002 -148 5 0
66002 -148 17 0
66002 148 -5 -17 0
66002 -149 5 0
66002 -149 18 0
66002 149 -5 -18 0
66002 -150 5 0
66002 -150 19 0
66002 150 -5 -19 0
66002 -151 5 0
66002 -151 20 0
66002 151 -5 -20 0
66002 -152 5 0
66002 -152 21 0
66002 152 -5 -21 0
66002 -153 5 0
66002 -153 22 0
66002 153 -5 -22 0
66002 -154 5 0
66002 -154 23 0
66002 154 -5 -23 0
66002 -155 5 0
66002 -155 24 0
66002 155 -5 -24 0
66002 -156 5 0
66002 -156 25 0
66002 156 -5 -25 0
66002 -157 5 0
66002 -157 26 0
66002 157 -5 -26 0
66002 -158 5 0
66002 -158 27 0
66002 158 -5 -27 0
66002 -159 5 0
66002 -159 28 0
66002 159 -5 -28 0
66002 -160 5 0
66002 -160 29 0
66002 160 -5 -29 0
66002 -161 6 0
66002 -161 7 0
66002 161 -6 -7 0
66002 -162 6 0
66002 -162 8 0
66002 162 -6 -8 0
66002 -163 6 0
66002 -163 9 0
66002 163 -6 -9 0
66002 -164 6 0
66002 -164 10 0
66002 164 -6 -10 0
66002 -165 6 0
66002 -165 11 0
66002 165 -6 -11 0
66002 -166 6 0
66002 -166 12 0
66002 166 -6 -12 0
66002 -167 6 0
66002 -167 13 0
66002 167 -6 -13 0
66002 -168 6 0
66002 -168 14 0
66002 168 -6 -14 0
66002 -169 6 0
66002 -169 15 0
66002 169 -6 -15 0
66002 -170 6 0
66002 -170 16 0
66002 170 -6 -16 0
66002 -171 6 0
66002 -171 17 0
66002 171 -6 -17 0
66002 -172 6 0
66002 -172 18 0
66002 172 -6 -18 0
66002 -173 6 0
66002 -173 19 0
66002 173 -6 -19 0
66002 -174 6 0
66002 -174 20 0
66002 174 -6 -20 0
66002 -175 6 0
66002 -175 21 0
66002 175 -6 -21 0
66002 -176 6 0
66002 -176 22 0
66002 176 -6 -22 0
66002 -177 6 0
66002 -177 23 0
66002 177 -6 -23 0
66002 -178 6 0
66002 -178 24 0
66002 178 -6 -24 0
66002 -179 6 0
66002 -179 25 0
66002 179 -6 -25 0
66002 -180 6 0
66002 -180 26 0
66002 180 -6 -26 0
66002 -181 6 0
66002 -181 27 0
66002 181 -6 -27 0
66002 -182 6 0
66002 -182 28 0
66002 182 -6 -28 0
66002 -183 6 0
66002 -183 29 0
66002 183 -6 -29 0
66002 -184 7 0
66002 -184 8 0
66002 184 -7 -8 0
66002 -185 7 0
66002 -185 9 0
66002 185 -7 -9 0
66002 -186 7 0
66002 -186 10 0
66002 186 -7 -10 0
66002 -187 7 0
66002 -187 11 0
66002 187 -7 -11 0
66002 -188 7 0
66002 -188 12 0
66002 188 -7 -12 0
66002 -189 7 0
66002 -189 13 0
66002 189 -7 -13 0
66002 -190 7 0
66002 -190 14 0
66002 190 -7 -14 0
66002 -191 7 0
66002 -191 15 0
66002 191 -7 -15 0
66002 -192 7 0
66002 -192 16 0
66002 192 -7 -16 0
66002 -193 7 0
66002 -193 17 0
66002 193 -7 -17 0
66002 -194 7 0
66002 -194 18 0
66002 194 -7 -18 0
66002 -195 7 0
66002 -195 19 0
66002 195 -7 -19 0
66002 -196 7 0
66002 -196 20 0
66002 196 -7 -20 0
66002 -197 7 0
66002 -197 21 0
66002 197 -7 -21 0
66002 -198 7 0
66002 -198 22 0
66002 198 -7 -22 0
66002 -199 7 0
66002 -199 23 0
66002 199 -7 -23 0
66002 -200 7 0
66002 -200 24 0
66002 200 -7 -24 0
66002 -201 7 0
66002 -201 25 0
66002 201 -7 -25 0
66002 -202 7 0
66002 -202 26 0
66002 202 -7 -26 0
66002 -203 7 0
66002 -203 27 0
66002 203 -7 -27 0
66002 -204 7 0
66002 -204 28 0
66002 204 -7 -28 0
66002 -205 7 0
66002 -205 29 0
66002 205 -7 -29 0
66002 -206 8 0
66002 -206 9 0
66002 206 -8 -9 0
66002 -207 8 0
66002 -207 10 0
66002 207 -8 -10 0
66002 -208 8 0
66002 -208 11 0
66002 208 -8 -11 0
66002 -209 8 0
66002 -209 12 0
66002 209 -8 -12 0
66002 -210 8 0
66002 -210 13 0
66002 210 -8 -13 0
66002 -211 8 0
66002 -211 14 0
66002 211 -8 -14 0
66002 -212 8 0
66002 -212 15 0
66002 212 -8 -15 0
66002 -213 8 0
66002 -213 16 0
66002 213 -8 -16 0
66002 -214 8 0
66002 -214 17 0
66002 214 -8 -17 0
66002 -215 8 0
66002 -215 18 0
66002 215 -8 -18 0
66002 -216 8 0
66002 -216 19 0
66002 216 -8 -19 0
66002 -217 8 0
66002 -217 20 0
66002 217 -8 -20 0
66002 -218 8 0
66002 -218 21 0
66002 218 -8 -21 0
66002 -219 8 0
66002 -219 22 0
66002 219 -8 -22 0
66002 -220 8 0
66002 -220 23 0
66002 220 -8 -23 0
66002 -221 8 0
66002 -221 24 0
66002 221 -8 -24 0
66002 -222 8 0
66002 -222 25 0
66002 222 -8 -25 0
66002 -223 8 0
66002 -223 26 0
66002 223 -8 -26 0
66002 -224 8 0
66002 -224 27 0
66002 224 -8 -27 0
66002 -225 8 0
66002 -225 28 0
66002 225 -8 -28 0
66002 -226 8 0
66002 -226 29 0
66002 226 -8 -29 0
66002 -227 9 0
66002 -227 10 0
66002 227 -9 -10 0
66002 -228 9 0
66002 -228 11 0
66002 228 -9 -11 0
66002 -229 9 0
66002 -229 12 0
66002 229 -9 -12 0
66002 -230 9 0
66002 -230 13 0
66002 230 -9 -13 0
66002 -231 9 0
66002 -231 14 0
66002 231 -9 -14 0
66002 -232 9 0
66002 -232 15 0
66002 232 -9 -15 0
66002 -233 9 0
66002 -233 16 0
66002 233 -9 -16 0
66002 -234 9 0
66002 -234 17 0
66002 234 -9 -17 0
66002 -235 9 0
66002 -235 18 0
66002 235 -9 -18 0
66002 -236 9 0
66002 -236 19 0
66002 236 -9 -19 0
66002 -237 9 0
66002 -237 20 0
66002 237 -9 -20 0
66002 -238 9 0
66002 -238 21 0
66002 238 -9 -21 0
66002 -239 9 0
66002 -239 22 0
66002 239 -9 -22 0
66002 -240 9 0
66002 -240 23 0
66002 240 -9 -23 0
66002 -241 9 0
66002 -241 24 0
66002 241 -9 -24 0
66002 -242 9 0
66002 -242 25 0
66002 242 -9 -25 0
66002 -243 9 0
66002 -243 26 0
66002 243 -9 -26 0
66002 -244 9 0
66002 -244 27 0
66002 244 -9 -27 0
66002 -245 9 0
66002 -245 28 0
66002 245 -9 -28 0
66002 -246 9 0
66002 -246 29 0
66002 246 -9 -29 0
66002 -247 10 0
66002 -247 11 0
66002 247 -10 -11 0
66002 -248 10 0
66002 -248 12 0
66002 248 -10 -12 0
66002 -249 10 0
66002 -249 13 0
66002 249 -10 -13 0
66002 -250 10 0
66002 -250 14 0
66002 250 -10 -14 0
66002 -251 10 0
66002 -251 15 0
66002 251 -10 -15 0
66002 -252 10 0
66002 -252 16 0
66002 252 -10 -16 0
66002 -253 10 0
66002 -253 17 0
66002 253 -10 -17 0
66002 -254 10 0
66002 -254 18 0
66002 254 -10 -18 0
66002 -255 10 0
66002 -255 19 0
66002 255 -10 -19 0
66002 -256 10 0
66002 -256 20 0
66002 256 -10 -20 0
66002 -257 10 0
66002 -257 21 0
66002 257 -10 -21 0
66002 -258 10 0
66002 -258 22 0
66002 258 -10 -22 0
66002 -259 10 0
66002 -259 23 0
66002 259 -10 -23 0
66002 -260 10 0
66002 -260 24 0
66002 260 -10 -24 0
66002 -261 10 0
66002 -261 25 0
66002 261 -10 -25 0
66002 -262 10 0
66002 -262 26 0
66002 262 -10 -26 0
66002 -263 10 0
66002 -263 27 0
66002 263 -10 -27 0
66002 -264 10 0
66002 -264 28 0
66002 264 -10 -28 0
66002 -265 10 0
66002 -265 29 0
66002 265 -10 -29 0
66002 -266 11 0
66002 -266 12 0
66002 266 -11 -12 0
66002 -267 11 0
66002 -267 13 0
66002 267 -11 -13 0
66002 -268 11 0
66002 -268 14 0
66002 268 -11 -14 0
66002 -269 11 0
66002 -269 15 0
66002 269 -11 -15 0
66002 -270 11 0
66002 -270 16 0
66002 270 -11 -16 0
66002 -271 11 0
66002 -271 17 0
66002 271 -11 -17 0
66002 -272 11 0
66002 -272 18 0
66002 272 -11 -18 0
66002 -273 11 0
66002 -273 19 0
66002 273 -11 -19 0
66002 -274 11 0
66002 -274 20 0
66002 274 -11 -20 0
66002 -275 11 0
66002 -275 21 0
66002 275 -11 -21 0
66002 -276 11 0
66002 -276 22 0
66002 276 -11 -22 0
66002 -277 11 0
66002 -277 23 0
66002 277 -11 -23 0
66002 -278 11 0
66002 -278 24 0
66002 278 -11 -24 0
66002 -279 11 0
66002 -279 25 0
66002 279 -11 -25 0
66002 -280 11 0
66002 -280 26 0
66002 280 -11 -26 0
66002 -281 11 0
66002 -281 27 0
66002 281 -11 -27 0
66002 -282 11 0
66002 -282 28 0
66002 282 -11 -28 0
66002 -283 11 0
66002 -283 29 0
66002 283 -11 -29 0
66002 -284 12 0
66002 -284 13 0
66002 284 -12 -13 0
66002 -285 12 0
66002 -285 14 0
66002 285 -12 -14 0
66002 -286 12 0
66002 -286 15 0
66002 286 -12 -15 0
66002 -287 12 0
66002 -287 16 0
66002 287 -12 -16 0
66002 -288 12 0
66002 -288 17 0
66002 288 -12 -17 0
66002 -289 12 0
66002 -289 18 0
66002 289 -12 -18 0
66002 -290 12 0
66002 -290 19 0
66002 290 -12 -19 0
66002 -291 12 0
66002 -291 20 0
66002 291 -12 -20 0
66002 -292 12 0
66002 -292 21 0
66002 292 -12 -21 0
66002 -293 12 0
66002 -293 22 0
66002 293 -12 -22 0
66002 -294 12 0
66002 -294 23 0
66002 294 -12 -23 0
66002 -295 12 0
66002 -295 24 0
66002 295 -12 -24 0
66002 -296 12 0
66002 -296 25 0
66002 296 -12 -25 0
66002 -297 12 0
66002 -297 26 0
66002 297 -12 -26 0
66002 -298 12 0
66002 -298 27 0
66002 298 -12 -27 0
66002 -299 12 0
66002 -299 28 0
66002 299 -12 -28 0
66002 -300 12 0
66002 -300 29 0
66002 300 -12 -29 0
66002 -301 13 0
66002 -301 14 0
66002 301 -13 -14 0
66002 -302 13 0
66002 -302 15 0
66002 302 -13 -15 0
66002 -303 13 0
66002 -303 16 0
66002 303 -13 -16 0
66002 -304 13 0
66002 -304 17 0
66002 304 -13 -17 0
66002 -305 13 0
66002 -305 18 0
66002 305 -13 -18 0
66002 -306 13 0
66002 -306 19 0
66002 306 -13 -19 0
66002 -307 13 0
66002 -307 20 0
66002 307 -13 -20 0
66002 -308 13 0
66002 -308 21 0
66002 308 -13 -21 0
66002 -309 13 0
66002 -309 22 0
66002 309 -13 -22 0
66002 -310 13 0
66002 -310 23 0
66002 310 -13 -23 0
66002 -311 13 0
66002 -311 24 0
66002 311 -13 -24 0
66002 -312 13 0
66002 -312 25 0
66002 312 -13 -25 0
66002 -313 13 0
66002 -313 26 0
66002 313 -13 -26 0
66002 -314 13 0
66002 -314 27 0
66002 314 -13 -27 0
66002 -315 13 0
66002 -315 28 0
66002 315 -13 -28 0
66002 -316 13 0
66002 -316 29 0
66002 316 -13 -29 0
66002 -317 14 0
66002 -317 15 0
66002 317 -14 -15 0
66002 -318 14 0
66002 -318 16 0
66002 318 -14 -16 0
66002 -319 14 0
66002 -319 17 0
66002 319 -14 -17 0
66002 -320 14 0
66002 -320 18 0
66002 320 -14 -18 0
66002 -321 14 0
66002 -321 19 0
66002 321 -14 -19 0
66002 -322 14 0
66002 -322 20 0
66002 322 -14 -20 0
66002 -323 14 0
66002 -323 21 0
66002 323 -14 -21 0
66002 -324 14 0
66002 -324 22 0
66002 324 -14 -22 0
66002 -325 14 0
66002 -325 23 0
66002 325 -14 -23 0
66002 -326 14 0
66002 -326 24 0
66002 326 -14 -24 0
66002 -327 14 0
66002 -327 25 0
66002 327 -14 -25 0
66002 -328 14 0
66002 -328 26 0
66002 328 -14 -26 0
66002 -329 14 0
66002 -329 27 0
66002 329 -14 -27 0
66002 -330 14 0
66002 -330 28 0
66002 330 -14 -28 0
66002 -331 14 0
66002 -331 29 0
66002 331 -14 -29 0
66002 -332 15 0
66002 -332 16 0
66002 332 -15 -16 0
66002 -333 15 0
66002 -333 17 0
66002 333 -15 -17 0
66002 -334 15 0
66002 -334 18 0
66002 334 -15 -18 0
66002 -335 15 0
66002 -335 19 0
66002 335 -15 -19 0
66002 -336 15 0
66002 -336 20 0
66002 336 -15 -20 0
66002 -337 15 0
66002 -337 21 0
66002 337 -15 -21 0
66002 -338 15 0
66002 -338 22 0
66002 338 -15 -22 0
66002 -339 15 0
66002 -339 23 0
66002 339 -15 -23 0
66002 -340 15 0
66002 -340 24 0
66002 340 -15 -24 0
66002 -341 15 0
66002 -341 25 0
66002 341 -15 -25 0
66002 -342 15 0
66002 -342 26 0
66002 342 -15 -26 0
66002 -343 15 0
66002 -343 27 0
66002 343 -15 -27 0
66002 -344 15 0
66002 -344 28 0
66002 344 -15 -28 0
66002 -345 15 0
66002 -345 29 0
66002 345 -15 -29 0
66002 -346 16 0
66002 -346 17 0
66002 346 -16 -17 0
66002 -347 16 0
66002 -347 18 0
66002 347 -16 -18 0
66002 -348 16 0
66002 -348 19 0
66002 348 -16 -19 0
66002 -349 16 0
66002 -349 20 0
66002 349 -16 -20 0
66002 -350 16 0
66002 -350 21 0
66002 350 -16 -21 0
66002 -351 16 0
66002 -351 22 0
66002 351 -16 -22 0
66002 -352 16 0
66002 -352 23 0
66002 352 -16 -23 0
66002 -353 16 0
66002 -353 24 0
66002 353 -16 -24 0
66002 -354 16 0
66002 -354 25 0
66002 354 -16 -25 0
66002 -355 16 0
66002 -355 26 0
66002 355 -16 -26 0
66002 -356 16 0
66002 -356 27 0
66002 356 -16 -27 0
66002 -357 16 0
66002 -357 28 0
66002 357 -16 -28 0
66002 -358 16 0
66002 -358 29 0
66002 358 -16 -29 0
66002 -359 17 0
66002 -359 18 0
66002 359 -17 -18 0
66002 -360 17 0
66002 -360 19 0
66002 360 -17 -19 0
66002 -361 17 0
66002 -361 20 0
66002 361 -17 -20 0
66002 -362 17 0
66002 -362 21 0
66002 362 -17 -21 0
66002 -363 17 0
66002 -363 22 0
66002 363 -17 -22 0
66002 -364 17 0
66002 -364 23 0
66002 364 -17 -23 0
66002 -365 17 0
66002 -365 24 0
66002 365 -17 -24 0
66002 -366 17 0
66002 -366 25 0
66002 366 -17 -25 0
66002 -367 17 0
66002 -367 26 0
66002 367 -17 -26 0
66002 -368 17 0
66002 -368 27 0
66002 368 -17 -27 0
66002 -369 17 0
66002 -369 28 0
66002 369 -17 -28 0
66002 -370 17 0
66002 -370 29 0
66002 370 -17 -29 0
66002 -371 18 0
66002 -371 19 0
66002 371 -18 -19 0
66002 -372 18 0
66002 -372 20 0
66002 372 -18 -20 0
66002 -373 18 0
66002 -373 21 0
66002 373 -18 -21 0
66002 -374 18 0
66002 -374 22 0
66002 374 -18 -22 0
66002 -375 18 0
66002 -375 23 0
66002 375 -18 -23 0
66002 -376 18 0
66002 -376 24 0
66002 376 -18 -24 0
66002 -377 18 0
66002 -377 25 0
66002 377 -18 -25 0
66002 -378 18 0
66002 -378 26 0
66002 378 -18 -26 0
66002 -379 18 0
66002 -379 27 0
66002 379 -18 -27 0
66002 -380 18 0
66002 -380 28 0
66002 380 -18 -28 0
66002 -381 18 0
66002 -381 29 0
66002 381 -18 -29 0
66002 -382 19 0
66002 -382 20 0
66002 382 -19 -20 0
66002 -383 19 0
66002 -383 21 0
66002 383 -19 -21 0
66002 -384 19 0
66002 -384 22 0
66002 384 -19 -22 0
66002 -385 19 0
66002 -385 23 0
66002 385 -19 -23 0
66002 -386 19 0
66002 -386 24 0
66002 386 -19 -24 0
66002 -387 19 0
66002 -387 25 0
66002 387 -19 -25 0
66002 -388 19 0
66002 -388 26 0
66002 388 -19 -26 0
66002 -389 19 0
66002 -389 27 0
66002 389 -19 -27 0
66002 -390 19 0
66002 -390 28 0
66002 390 -19 -28 0
66002 -391 19 0
66002 -391 29 0
66002 391 -19 -29 0
66002 -392 20 0
66002 -392 21 0
66002 392 -20 -21 0
66002 -393 20 0
66002 -393 22 0
66002 393 -20 -22 0
66002 -394 20 0
66002 -394 23 0
66002 394 -20 -23 0
66002 -395 20 0
66002 -395 24 0
66002 395 -20 -24 0
66002 -396 20 0
66002 -396 25 0
66002 396 -20 -25 0
66002 -397 20 0
66002 -397 26 0
66002 397 -20 -26 0
66002 -398 20 0
66002 -398 27 0
66002 398 -20 -27 0
66002 -399 20 0
66002 -399 28 0
66002 399 -20 -28 0
66002 -400 20 0
66002 -400 29 0
66002 400 -20 -29 0
66002 -401 21 0
66002 -401 22 0
66002 401 -21 -22 0
66002 -402 21 0
66002 -402 23 0
66002 402 -21 -23 0
66002 -403 21 0
66002 -403 24 0
66002 403 -21 -24 0
66002 -404 21 0
66002 -404 25 0
66002 404 -21 -25 0
66002 -405 21 0
66002 -405 26 0
66002 405 -21 -26 0
66002 -406 21 0
66002 -406 27 0
66002 406 -21 -27 0
66002 -407 21 0
66002 -407 28 0
66002 407 -21 -28 0
66002 -408 21 0
66002 -408 29 0
66002 408 -21 -29 0
66002 -409 22 0
66002 -409 23 0
66002 409 -22 -23 0
66002 -410 22 0
66002 -410 24 0
66002 410 -22 -24 0
66002 -411 22 0
66002 -411 25 0
66002 411 -22 -25 0
66002 -412 22 0
66002 -412 26 0
66002 412 -22 -26 0
66002 -413 22 0
66002 -413 27 0
66002 413 -22 -27 0
66002 -414 22 0
66002 -414 28 0
66002 414 -22 -28 0
66002 -415 22 0
66002 -415 29 0
66002 415 -22 -29 0
66002 -416 23 0
66002 -416 24 0
66002 416 -23 -24 0
66002 -417 23 0
66002 -417 25 0
66002 417 -23 -25 0
66002 -418 23 0
66002 -418 26 0
66002 418 -23 -26 0
66002 -419 23 0
66002 -419 27 0
66002 419 -23 -27 0
66002 -420 23 0
66002 -420 28 0
66002 420 -23 -28 0
66002 -421 23 0
66002 -421 29 0
66002 421 -23 -29 0
66002 -422 24 0
66002 -422 25 0
66002 422 -24 -25 0
66002 -423 24 0
66002 -423 26 0
66002 423 -24 -26 0
66002 -424 24 0
66002 -424 27 0
66002 424 -24 -27 0
66002 -425 24 0
66002 -425 28 0
66002 425 -24 -28 0
66002 -426 24 0
66002 -426 29 0
66002 426 -24 -29 0
66002 -427 25 0
66002 -427 26 0
66002 427 -25 -26 0
66002 -428 25 0
66002 -428 27 0
66002 428 -25 -27 0
66002 -429 25 0
66002 -429 28 0
66002 429 -25 -28 0
66002 -430 25 0
66002 -430 29 0
66002 430 -25 -29 0
66002 -431 26 0
66002 -431 27 0
66002 431 -26 -27 0
66002 -432 26 0
66002 -432 28 0
66002 432 -26 -28 0
66002 -433 26 0
66002 -433 29 0
66002 433 -26 -29 0
66002 -434 27 0
66002 -434 28 0
66002 434 -27 -28 0
66002 -435 27 0
66002 -435 29 0
66002 435 -27 -29 0
66002 -436 28 0
66002 -436 29 0
66002 436 -28 -29 0
27753 1 0
65992 -1 0
56080 31 0
65992 -31 0
79802 32 0
65992 -32 0
63238 33 0
65992 -33 0
65526 34 0
65992 -34 0
71462 35 0
65992 -35 0
78052 36 0
65992 -36 0
65698 37 0
65992 -37 0
82294 38 0
65992 -38 0
71524 39 0
65992 -39 0
63794 40 0
65992 -40 0
73690 41 0
65992 -41 0
72656 42 0
65992 -42 0
51046 43 0
65992 -43 0
70474 44 0
65992 -44 0
59552 45 0
65992 -45 0
76464 46 0
65992 -46 0
76182 47 0
65992 -47 0
58090 48 0
65992 -48 0
66342 49 0
65992 -49 0
69694 50 0
65992 -50 0
65562 51 0
65992 -51 0
68562 52 0
65992 -52 0
73550 53 0
65992 -53 0
70274 54 0
65992 -54 0
63080 55 0
65992 -55 0
60110 56 0
65992 -56 0
66430 57 0
65992 -57 0
64354 58 0
65992 -58 0
31129 2 0
65992 -2 0
62460 59 0
65992 -59 0
58518 60 0
65992 -60 0
74106 61 0
65992 -61 0
69342 62 0
65992 -62 0
68754 63 0
65992 -63 0
72824 64 0
65992 -64 0
65208 65 0
65992 -65 0
79438 66 0
65992 -66 0
74954 67 0
65992 -67 0
71570 68 0
65992 -68 0
72074 69 0
65992 -69 0
61462 70 0
65992 -70 0
56274 71 0
65992 -71 0
57480 72 0
65992 -72 0
60498 73 0
65992 -73 0
67820 74 0
65992 -74 0
60636 75 0
65992 -75 0
69464 76 0
65992 -76 0
65438 77 0
65992 -77 0
64856 78 0
65992 -78 0
71462 79 0
65992 -79 0
69428 80 0
65992 -80 0
68974 81 0
65992 -81 0
64692 82 0
65992 -82 0
65492 83 0
65992 -83 0
69560 84 0
65992 -84 0
65656 85 0
65992 -85 0
39879 3 0
65992 -3 0
60424 86 0
65992 -86 0
64200 87 0
65992 -87 0
72722 88 0
65992 -88 0
71678 89 0
65992 -89 0
70086 90 0
65992 -90 0
71842 91 0
65992 -91 0
69118 92 0
65992 -92 0
48622 93 0
65992 -93 0
60806 94 0
65992 -94 0
59496 95 0
65992 -95 0
72866 96 0
65992 -96 0
62476 97 0
65992 -97 0
64348 98 0
65992 -98 0
70768 99 0
65992 -99 0
62508 100 0
65992 -100 0
63678 101 0
65992 -101 0
63388 102 0
65992 -102 0
65378 103 0
65992 -103 0
66926 104 0
65992 -104 0
58404 105 0
65992 -105 0
65576 106 0
65992 -106 0
63340 107 0
65992 -107 0
64302 108 0
65992 -108 0
65478 109 0
65992 -109 0
67708 110 0
65992 -110 0
67252 111 0
65992 -111 0
55391 4 0
65992 -4 0
68870 112 0
65992 -112 0
71250 113 0
65992 -113 0
45522 114 0
65992 -114 0
61850 115 0
65992 -115 0
67594 116 0
65992 -116 0
63564 117 0
65992 -117 0
77084 118 0
65992 -118 0
59322 119 0
65992 -119 0
71552 120 0
65992 -120 0
69916 121 0
65992 -121 0
53064 122 0
65992 -122 0
55998 123 0
65992 -123 0
68126 124 0
65992 -124 0
65334 125 0
65992 -125 0
62592 126 0
65992 -126 0
65446 127 0
65992 -127 0
70964 128 0
65992 -128 0
58412 129 0
65992 -129 0
74760 130 0
65992 -130 0
67352 131 0
65992 -131 0
69728 132 0
65992 -132 0
66766 133 0
65992 -133 0
62808 134 0
65992 -134 0
61768 135 0
65992 -135 0
63976 136 0
65992 -136 0
57379 5 0
65992 -5 0
70214 137 0
65992 -137 0
60984 138 0
65992 -138 0
74874 139 0
65992 -139 0
63238 140 0
65992 -140 0
55556 141 0
65992 -141 0
66022 142 0
65992 -142 0
64516 143 0
65992 -143 0
60928 144 0
65992 -144 0
72828 145 0
65992 -145 0
69098 146 0
65992 -146 0
76310 147 0
65992 -147 0
58032 148 0
65992 -148 0
67654 149 0
65992 -149 0
70416 150 0
65992 -150 0
54760 151 0
65992 -151 0
69380 152 0
65992 -152 0
64690 153 0
65992 -153 0
64488 154 0
65992 -154 0
68826 155 0
65992 -155 0
64502 156 0
65992 -156 0
63300 157 0
65992 -157 0
61384 158 0
65992 -158 0
66748 159 0
65992 -159 0
65236 160 0
65992 -160 0
40169 6 0
65992 -6 0
70630 161 0
65992 -161 0
64396 162 0
65992 -162 0
46640 163 0
65992 -163 0
76346 164 0
65992 -164 0
72658 165 0
65992 -165 0
59624 166 0
65992 -166 0
61014 167 0
65992 -167 0
61610 168 0
65992 -168 0
70874 169 0
65992 -169 0
58314 170 0
65992 -170 0
68918 171 0
65992 -171 0
61532 172 0
65992 -172 0
70888 173 0
65992 -173 0
62934 174 0
65992 -174 0
65042 175 0
65992 -175 0
62506 176 0
65992 -176 0
67254 177 0
65992 -177 0
62522 178 0
65992 -178 0
66908 179 0
65992 -179 0
67256 180 0
65992 -180 0
68562 181 0
65992 -181 0
66036 182 0
65992 -182 0
66076 183 0
65992 -183 0
55703 7 0
65992 -7 0
67496 184 0
65992 -184 0
61908 185 0
65992 -185 0
61290 186 0
65992 -186 0
73860 187 0
65992 -187 0
59328 188 0
65992 -188 0
74832 189 0
65992 -189 0
74592 190 0
65992 -190 0
56058 191 0
65992 -191 0
71394 192 0
65992 -192 0
49994 193 0
65992 -193 0
57020 194 0
65992 -194 0
65340 195 0
65992 -195 0
64650 196 0
65992 -196 0
64614 197 0
65992 -197 0
58436 198 0
65992 -198 0
62790 199 0
65992 -199 0
64932 200 0
65992 -200 0
66430 201 0
65992 -201 0
71116 202 0
65992 -202 0
67400 203 0
65992 -203 0
58252 204 0
65992 -204 0
64228 205 0
65992 -205 0
54483 8 0
65992 -8 0
68236 206 0
65992 -206 0
55440 207 0
65992 -207 0
57426 208 0
65992 -208 0
64018 209 0
65992 -209 0
71556 210 0
65992 -210 0
65802 211 0
65992 -211 0
83858 212 0
65992 -212 0
65728 213 0
65992 -213 0
70720 214 0
65992 -214 0
71570 215 0
65992 -215 0
52152 216 0
65992 -216 0
74032 217 0
65992 -217 0
61020 218 0
65992 -218 0
67590 219 0
65992 -219 0
61250 220 0
65992 -220 0
64124 221 0
65992 -221 0
69674 222 0
65992 -222 0
69284 223 0
65992 -223 0
67422 224 0
65992 -224 0
59372 225 0
65992 -225 0
64900 226 0
65992 -226 0
46158 9 0
65992 -9 0
72632 227 0
65992 -227 0
70608 228 0
65992 -228 0
53436 229 0
65992 -229 0
60254 230 0
65992 -230 0
75380 231 0
65992 -231 0
62150 232 0
65992 -232 0
55848 233 0
65992 -233 0
64370 234 0
65992 -234 0
61512 235 0
65992 -235 0
70350 236 0
65992 -236 0
58958 237 0
65992 -237 0
59518 238 0
65992 -238 0
56558 239 0
65992 -239 0
65866 240 0
65992 -240 0
60630 241 0
65992 -241 0
70176 242 0
65992 -242 0
70148 243 0
65992 -243 0
69052 244 0
65992 -244 0
60348 245 0
65992 -245 0
64564 246 0
65992 -246 0
76985 10 0
65992 -10 0
63026 247 0
65992 -247 0
63194 248 0
65992 -248 0
60978 249 0
65992 -249 0
76820 250 0
65992 -250 0
73872 251 0
65992 -251 0
76752 252 0
65992 -252 0
64804 253 0
65992 -253 0
66276 254 0
65992 -254 0
65644 255 0
65992 -255 0
68850 256 0
65992 -256 0
62870 257 0
65992 -257 0
69236 258 0
65992 -258 0
64960 259 0
65992 -259 0
66466 260 0
65992 -260 0
67878 261 0
65992 -261 0
64632 262 0
65992 -262 0
64072 263 0
65992 -263 0
65284 264 0
65992 -264 0
65740 265 0
65992 -265 0
44343 11 0
65992 -11 0
59248 266 0
65992 -266 0
62636 267 0
65992 -267 0
64772 268 0
65992 -268 0
70434 269 0
65992 -269 0
70044 270 0
65992 -270 0
73422 271 0
65992 -271 0
64832 272 0
65992 -272 0
67108 273 0
65992 -273 0
64768 274 0
65992 -274 0
61814 275 0
65992 -275 0
72122 276 0
65992 -276 0
51358 277 0
65992 -277 0
62730 278 0
65992 -278 0
61866 279 0
65992 -279 0
67228 280 0
65992 -280 0
67804 281 0
65992 -281 0
63334 282 0
65992 -282 0
66874 283 0
65992 -283 0
64514 12 0
65992 -12 0
67146 284 0
65992 -284 0
69644 285 0
65992 -285 0
62270 286 0
65992 -286 0
53726 287 0
65992 -287 0
67500 288 0
65992 -288 0
66358 289 0
65992 -289 0
67196 290 0
65992 -290 0
60778 291 0
65992 -291 0
65658 292 0
65992 -292 0
54642 293 0
65992 -293 0
67902 294 0
65992 -294 0
64458 295 0
65992 -295 0
71280 296 0
65992 -296 0
68010 297 0
65992 -297 0
64966 298 0
65992 -298 0
60668 299 0
65992 -299 0
63892 300 0
65992 -300 0
52530 13 0
65992 -13 0
75508 301 0
65992 -301 0
66296 302 0
65992 -302 0
71456 303 0
65992 -303 0
73642 304 0
65992 -304 0
61982 305 0
65992 -305 0
77414 306 0
65992 -306 0
57988 307 0
65992 -307 0
69042 308 0
65992 -308 0
70878 309 0
65992 -309 0
67406 310 0
65992 -310 0
64168 311 0
65992 -311 0
62566 312 0
65992 -312 0
60762 313 0
65992 -313 0
63258 314 0
65992 -314 0
71724 315 0
65992 -315 0
67588 316 0
65992 -316 0
41193 14 0
65992 -14 0
68258 317 0
65992 -317 0
65506 318 0
65992 -318 0
72104 319 0
65992 -319 0
71490 320 0
65992 -320 0
61620 321 0
65992 -321 0
69818 322 0
65992 -322 0
67238 323 0
65992 -323 0
70006 324 0
65992 -324 0
64606 325 0
65992 -325 0
68060 326 0
65992 -326 0
64316 327 0
65992 -327 0
65764 328 0
65992 -328 0
66914 329 0
65992 -329 0
68186 330 0
65992 -330 0
66790 331 0
65992 -331 0
49472 15 0
65992 -15 0
57970 332 0
65992 -332 0
64002 333 0
65992 -333 0
54134 334 0
65992 -334 0
73474 335 0
65992 -335 0
60016 336 0
65992 -336 0
69920 337 0
65992 -337 0
59998 338 0
65992 -338 0
71108 339 0
65992 -339 0
65152 340 0
65992 -340 0
64258 341 0
65992 -341 0
65626 342 0
65992 -342 0
64710 343 0
65992 -343 0
66374 344 0
65992 -344 0
65530 345 0
65992 -345 0
53360 16 0
65992 -16 0
74068 346 0
65992 -346 0
63162 347 0
65992 -347 0
64372 348 0
65992 -348 0
66938 349 0
65992 -349 0
66544 350 0
65992 -350 0
55046 351 0
65992 -351 0
72386 352 0
65992 -352 0
66432 353 0
65992 -353 0
72764 354 0
65992 -354 0
67028 355 0
65992 -355 0
65214 356 0
65992 -356 0
63646 357 0
65992 -357 0
64354 358 0
65992 -358 0
55806 17 0
65992 -17 0
70726 359 0
65992 -359 0
70536 360 0
65992 -360 0
62276 361 0
65992 -361 0
66928 362 0
65992 -362 0
63080 363 0
65992 -363 0
69830 364 0
65992 -364 0
67724 365 0
65992 -365 0
67106 366 0
65992 -366 0
67084 367 0
65992 -367 0
65406 368 0
65992 -368 0
65216 369 0
65992 -369 0
64144 370 0
65992 -370 0
55324 18 0
65992 -18 0
70646 371 0
65992 -371 0
67948 372 0
65992 -372 0
60888 373 0
65992 -373 0
64122 374 0
65992 -374 0
57282 375 0
65992 -375 0
63216 376 0
65992 -376 0
64108 377 0
65992 -377 0
66518 378 0
65992 -378 0
68448 379 0
65992 -379 0
66122 380 0
65992 -380 0
67798 381 0
65992 -381 0
56667 19 0
65992 -19 0
76452 382 0
65992 -382 0
63426 383 0
65992 -383 0
65260 384 0
65992 -384 0
63640 385 0
65992 -385 0
67722 386 0
65992 -386 0
68530 387 0
65992 -387 0
69562 388 0
65992 -388 0
67496 389 0
65992 -389 0
61092 390 0
65992 -390 0
65068 391 0
65992 -391 0
59583 20 0
65992 -20 0
70500 392 0
65992 -392 0
61394 393 0
65992 -393 0
67832 394 0
65992 -394 0
66018 395 0
65992 -395 0
65022 396 0
65992 -396 0
63266 397 0
65992 -397 0
61688 398 0
65992 -398 0
66756 399 0
65992 -399 0
65068 400 0
65992 -400 0
63543 21 0
65992 -21 0
66604 401 0
65992 -401 0
56868 402 0
65992 -402 0
65462 403 0
65992 -403 0
68780 404 0
65992 -404 0
66990 405 0
65992 -405 0
68470 406 0
65992 -406 0
65262 407 0
65992 -407 0
66706 408 0
65992 -408 0
68710 22 0
65992 -22 0
69546 409 0
65992 -409 0
66614 410 0
65992 -410 0
70688 411 0
65992 -411 0
67760 412 0
65992 -412 0
64624 413 0
65992 -413 0
61812 414 0
65992 -414 0
64060 415 0
65992 -415 0
54737 23 0
65992 -23 0
65082 416 0
65992 -416 0
64358 417 0
65992 -417 0
66806 418 0
65992 -418 0
68618 419 0
65992 -419 0
65214 420 0
65992 -420 0
67714 421 0
65992 -421 0
62235 24 0
65992 -24 0
63224 422 0
65992 -422 0
69018 423 0
65992 -423 0
69426 424 0
65992 -424 0
63148 425 0
65992 -425 0
66244 426 0
65992 -426 0
56049 25 0
65992 -25 0
66772 427 0
65992 -427 0
68110 428 0
65992 -428 0
66748 429 0
65992 -429 0
67252 430 0
65992 -430 0
63538 26 0
65992 -26 0
62658 431 0
65992 -431 0
70672 432 0
65992 -432 0
66496 433 0
65992 -433 0
67219 27 0
65992 -27 0
67970 434 0
65992 -434 0
65278 435 0
65992 -435 0
67325 28 0
65992 -28 0
64522 436 0
65992 -436 0
67777 29 0
65992 -29 0
